n = 49;
rows = 110;
supports = [|
  {1},2..8,
 |{1},43..49,
 |{2},{1},
 |{2},3..9,
 |{2},44..49,
 |{3},1..2,
 |{3},4..10,
 |{3},45..49,
 |{4},1..3,
 |{4},5..11,
 |{4},46..49,
 |{5},1..4,
 |{5},6..12,
 |{5},47..49,
 |{6},1..5,
 |{6},7..13,
 |{6},48..49,
 |{7},1..6,
 |{7},8..14,
 |{7},{49},
 |{8},1..7,
 |{8},9..15,
 |{9},2..8,
 |{9},10..16,
 |{10},3..9,
 |{10},11..17,
 |{11},4..10,
 |{11},12..18,
 |{12},5..11,
 |{12},13..19,
 |{13},6..12,
 |{13},14..20,
 |{14},7..13,
 |{14},15..21,
 |{15},8..14,
 |{15},16..22,
 |{16},9..15,
 |{16},17..23,
 |{17},10..16,
 |{17},18..24,
 |{18},11..17,
 |{18},19..25,
 |{19},12..18,
 |{19},20..26,
 |{20},13..19,
 |{20},21..27,
 |{21},14..20,
 |{21},22..28,
 |{22},15..21,
 |{22},23..29,
 |{23},16..22,
 |{23},24..30,
 |{24},17..23,
 |{24},25..31,
 |{25},18..24,
 |{25},26..32,
 |{26},19..25,
 |{26},27..33,
 |{27},20..26,
 |{27},28..34,
 |{28},21..27,
 |{28},29..35,
 |{29},22..28,
 |{29},30..36,
 |{30},23..29,
 |{30},31..37,
 |{31},24..30,
 |{31},32..38,
 |{32},25..31,
 |{32},33..39,
 |{33},26..32,
 |{33},34..40,
 |{34},27..33,
 |{34},35..41,
 |{35},28..34,
 |{35},36..42,
 |{36},29..35,
 |{36},37..43,
 |{37},30..36,
 |{37},38..44,
 |{38},31..37,
 |{38},39..45,
 |{39},32..38,
 |{39},40..46,
 |{40},33..39,
 |{40},41..47,
 |{41},34..40,
 |{41},42..48,
 |{42},35..41,
 |{42},43..49,
 |{43},36..42,
 |{43},44..49,
 |{43},{1},
 |{44},37..43,
 |{44},45..49,
 |{44},1..2,
 |{45},38..44,
 |{45},46..49,
 |{45},1..3,
 |{46},39..45,
 |{46},47..49,
 |{46},1..4,
 |{47},40..46,
 |{47},48..49,
 |{47},1..5,
 |{48},41..47,
 |{48},{49},
 |{48},1..6,
 |{49},42..48,
 |{49},1..7 |];

t = 59;

indexes = [|
    0,28,
  | 1,42,
  | 2,16,
  | 3,27,
  | 3,46,
  | 4,7,
  | 4,22,
  | 4,33,
  | 5,41,
  | 6,26,
  | 6,31,
  | 6,41,
  | 6,42,
  | 8,32,
  | 9,13,
  | 9,24,
  | 10,39,
  | 11,21,
  | 11,31,
  | 12,26,
  | 13,45,
  | 14,18,
  | 14,32,
  | 14,34,
  | 15,27,
  | 15,38,
  | 16,24,
  | 16,27,
  | 17,23,
  | 17,27,
  | 18,25,
  | 18,31,
  | 18,42,
  | 19,24,
  | 19,46,
  | 20,26,
  | 21,47,
  | 22,39,
  | 22,44,
  | 23,32,
  | 25,42,
  | 25,45,
  | 26,31,
  | 27,46,
  | 28,30,
  | 28,48,
  | 29,42,
  | 32,37,
  | 32,39,
  | 33,37,
  | 33,46,
  | 35,39,
  | 36,47,
  | 36,48,
  | 39,43,
  | 40,42,
  | 45,46,
  | 45,47,
  | 45,48 |];

